NAME : random115.804.tour
COMMENT : Length = 804
COMMENT : Found by LKH [Keld Helsgaun] Tue Sep  3 17:02:10 2024
TYPE : TOUR
DIMENSION : 115
TOUR_SECTION
1
43
32
7
59
73
109
81
42
19
69
47
25
41
61
87
72
9
52
26
17
13
102
36
108
2
76
110
63
45
5
99
93
22
75
53
4
86
55
112
60
31
57
97
54
64
20
33
6
68
44
65
90
30
16
62
84
107
21
96
79
82
49
50
3
103
51
23
48
95
8
67
115
28
89
15
58
92
80
98
85
39
40
38
105
88
71
77
106
46
10
111
66
11
114
56
100
12
91
14
104
27
35
74
24
78
34
18
83
101
70
29
94
37
113
-1
EOF
